db/inputs/14007245091217816975106992124504804.smt2
(set-logic QF_FP)
(declare-const x0 (_ FloatingPoint 8 24))
(declare-const x1 (_ FloatingPoint 8 24))
(declare-const x2 (_ FloatingPoint 8 24))
(declare-const x3 (_ FloatingPoint 8 24))
(declare-const x4 (_ FloatingPoint 8 24))
(assert (fp.eq (fp.div RNE x1 x4) (fp.add RNE x4 x4)))
(assert (fp.lt (fp.mul RNE x3 x1) (fp.mul RNE x3 x3)))
(assert (fp.eq (fp.sub RNE x2 x3) (fp.mul RNE x4 x1)))
(assert (fp.leq (fp.div RNE x0 x3) (fp.mul RNE x2 x4)))
(assert (fp.lt (fp.mul RNE x2 x2) (fp.sub RNE x0 x3)))
(assert (fp.eq (fp.add RNE x3 x4) (fp.add RNE x4 x0)))
(assert (fp.leq (fp.add RNE x0 x3) (fp.mul RNE x4 x0)))
(assert (fp.lt (fp.neg x1) (fp.sub RNE x0 x1)))
(assert (fp.gt (fp.sub RNE x4 x1) (fp.add RNE x4 x0)))
(assert (fp.lt (fp.mul RNE x1 x3) (fp.div RNE x4 x4)))
(check-sat)
