db/data/14007245091217816975106992124504804.z3.out
unsat
-------------------
161.124283794
